NAME : XML100_2352_02
DIMENSION : 101
NB_CLUSTERS : 5
CLUSTERING_ALG : KMeans
CLUSTERING_PARAMS : k(4)
CLUSTERS
1 0
2 1 7 8 13 26 51 69 71 81 83 84 97
3 2 15 16 17 18 22 25 27 28 36 38 41 49 59 63 67 70 74 75 77 78 82 85 88 91 96 100
4 4 6 11 14 20 21 44 45 47 58 60 72 73 79 86 87 89 90
5 3 5 9 10 12 19 23 24 29 30 31 32 33 34 35 37 39 40 42 43 46 48 50 52 53 54 55 56 57 61 62 64 65 66 68 76 80 92 93 94 95 98 99
EOF